set Nodes := n1 n2 n3 n4 n5 n6 n7 n8 n9 n10;

param StartNode:= n1;

param EndNode:= n10;

set Links :=
(n1, n2)
(n1, n3)
(n1, n4)
(n2, n5)
(n2, n6)
(n3, n2)
(n3, n4)
(n3, n7)
(n3, n8)
(n4, n7)
(n4, n8)
(n5, n9)
(n6, n5)
(n6, n7)
(n6, n9)
(n7, n2)
(n7, n9)
(n8, n7)
(n8, n9)
(n9, n10);

param Costs :=
n1, n2 4
n1, n3 1
n1, n4 3
n2, n5 3
n2, n6 1
n3, n2 2
n3, n4 1
n3, n7 8
n3, n8 5
n4, n7 3
n4, n8 2
n5, n9 4
n6, n5 1
n6, n7 2
n6, n9 7
n7, n2 1
n7, n9 3
n8, n7 2
n8, n9 6
n9, n10 3;
